p cnf 166 242               
7 -89 0
-3 23 0
-4 23 0
3 4 -23 0
23 -89 0
8 -90 0
-5 24 0
-6 24 0
5 6 -24 0
24 -90 0
89 90 -93 0
93 -101 0
11 -95 0
-3 28 0
-5 28 0
3 5 -28 0
28 -95 0
12 -96 0
-4 29 0
-6 29 0
4 6 -29 0
29 -96 0
95 96 -99 0
99 -101 0
101 -109 0
15 -103 0
23 -103 0
16 -104 0
24 -104 0
103 104 -107 0
107 -109 0
109 -117 0
19 -111 0
28 -111 0
20 -112 0
29 -112 0
111 112 -115 0
115 -117 0
117 119 0
-1 119 0
9 -91 0
23 -91 0
10 -92 0
24 -92 0
91 92 -94 0
94 -102 0
13 -97 0
28 -97 0
14 -98 0
29 -98 0
97 98 -100 0
100 -102 0
102 -110 0
17 -105 0
23 -105 0
18 -106 0
24 -106 0
105 106 -108 0
108 -110 0
110 -118 0
21 -113 0
28 -113 0
22 -114 0
29 -114 0
113 114 -116 0
116 -118 0
118 120 0
-2 120 0
-119 -120 121 0
-121 -122 0
7 60 0
-9 60 0
8 61 0
-10 61 0
-60 -61 62 0
9 63 0
-7 63 0
10 64 0
-8 64 0
-63 -64 65 0
-62 -65 66 0
11 67 0
-13 67 0
12 68 0
-14 68 0
-67 -68 69 0
13 70 0
-11 70 0
14 71 0
-12 71 0
-70 -71 72 0
-69 -72 73 0
15 74 0
-17 74 0
16 75 0
-18 75 0
-74 -75 76 0
17 77 0
-15 77 0
18 78 0
-16 78 0
-77 -78 79 0
-76 -79 80 0
19 81 0
-21 81 0
20 82 0
-22 82 0
-81 -82 83 0
21 84 0
-19 84 0
22 85 0
-20 85 0
-84 -85 86 0
-83 -86 87 0
-66 -73 -80 -87 88 0
-88 -122 0
-24 -23 -25 0
25 -27 0
23 24 -26 0
26 -27 0
27 -122 0
26 -31 0
-29 -28 -30 0
30 -31 0
31 -122 0
-8 -7 -32 0
32 -34 0
7 8 -33 0
33 -34 0
34 -38 0
-10 -9 -35 0
35 -37 0
9 10 -36 0
36 -37 0
37 -38 0
38 -122 0
-12 -11 -39 0
39 -41 0
11 12 -40 0
40 -41 0
41 -45 0
-14 -13 -42 0
42 -44 0
13 14 -43 0
43 -44 0
44 -45 0
45 -122 0
-16 -15 -46 0
46 -48 0
15 16 -47 0
47 -48 0
48 -52 0
-18 -17 -49 0
49 -51 0
17 18 -50 0
50 -51 0
51 -52 0
52 -122 0
-20 -19 -53 0
53 -55 0
19 20 -54 0
54 -55 0
55 -59 0
-22 -21 -56 0
56 -58 0
21 22 -57 0
57 -58 0
58 -59 0
59 -122 0
-1 2 -123 0
123 -165 0
-1 -2 124 0
1 2 124 0
-2 2 124 0
-3 6 -125 0
-124 125 -126 0
126 -165 0
-3 -6 127 0
3 6 127 0
-6 6 127 0
-124 -127 128 0
-4 5 -129 0
-128 129 -130 0
130 -165 0
-4 -5 131 0
4 5 131 0
-5 5 131 0
-128 -131 132 0
-7 10 -133 0
-132 133 -134 0
134 -165 0
-7 -10 135 0
7 10 135 0
-10 10 135 0
-132 -135 136 0
-8 9 -137 0
-136 137 -138 0
138 -165 0
-8 -9 139 0
8 9 139 0
-9 9 139 0
-136 -139 140 0
-11 14 -141 0
-140 141 -142 0
142 -165 0
-11 -14 143 0
11 14 143 0
-14 14 143 0
-140 -143 144 0
-12 13 -145 0
-144 145 -146 0
146 -165 0
-12 -13 147 0
12 13 147 0
-13 13 147 0
-144 -147 148 0
-15 18 -149 0
-148 149 -150 0
150 -165 0
-15 -18 151 0
15 18 151 0
-18 18 151 0
-148 -151 152 0
-16 17 -153 0
-152 153 -154 0
154 -165 0
-16 -17 155 0
16 17 155 0
-17 17 155 0
-152 -155 156 0
-19 22 -157 0
-156 157 -158 0
158 -165 0
-19 -22 159 0
19 22 159 0
-22 22 159 0
-156 -159 160 0
-20 21 -161 0
-160 161 -162 0
162 -165 0
122 0
165 0
